NAME : Gaspelle36-5-f.35896.tour
COMMENT : Length = 35896
COMMENT : Found by LKH-3 [Keld Helsgaun] Fri Jun  6 12:41:29 2025
TYPE : TOUR
DIMENSION : 46
TOUR_SECTION
5
46
1
15
16
22
21
27
33
32
31
25
19
18
24
30
36
37
38
39
40
41
35
34
28
29
23
17
11
10
9
8
7
6
12
13
14
42
2
20
43
3
44
4
26
45
-1
EOF
